4391
1460
4190
7271
4945
6493
6673
7280
4879
2832
4885
1456
1957
819
6298
3767
10174
9281
8296
4054
7703
720
9698
5374
3180
7680
3076
2209
6162
2475
5878
10014
8386
9063
8328
4893
4689
1329
2997
8764
1007
3345
9745
9364
5714
9010
2603
3126
6663
4708
